(set-option :produce-models true); benchmark generated from python API
(set-info :status unknown)
(declare-fun l_1_0_5 () Real)
(declare-fun l_1_0_4 () Real)
(declare-fun l_1_0_3 () Real)
(declare-fun _a_0_ () Real)
(declare-fun l_1_0_6 () Real)
(declare-fun l_1_0_1 () Real)
(declare-fun _a_1_ () Real)
(declare-fun l_1_0_8 () Real)
(declare-fun l_1_0_2 () Real)
(declare-fun _a_4_ () Real)
(declare-fun l_1_0_7 () Real)
(declare-fun l_1_0_9 () Real)
(declare-fun l_1_0_10 () Real)
(declare-fun l_1_1_7 () Real)
(declare-fun l_1_1_6 () Real)
(declare-fun l_1_1_4 () Real)
(declare-fun l_1_1_3 () Real)
(declare-fun l_1_1_1 () Real)
(declare-fun l_1_1_9 () Real)
(declare-fun l_1_1_8 () Real)
(declare-fun l_1_1_2 () Real)
(declare-fun l_1_1_5 () Real)
(declare-fun _a_2_ () Real)
(declare-fun l_1_1_12 () Real)
(declare-fun l_1_1_11 () Real)
(declare-fun _a_3_ () Real)
(declare-fun l_1_1_16 () Real)
(declare-fun l_1_1_15 () Real)
(declare-fun l_1_1_10 () Real)
(declare-fun l_1_1_13 () Real)
(declare-fun l_1_1_17 () Real)
(declare-fun l_1_1_14 () Real)
(declare-fun l_1_1_18 () Real)
(declare-fun l_1_1_19 () Real)
(declare-fun l_1_2_9 () Real)
(declare-fun l_1_2_8 () Real)
(declare-fun l_1_2_6 () Real)
(declare-fun l_1_2_5 () Real)
(declare-fun l_1_2_4 () Real)
(declare-fun l_1_2_3 () Real)
(declare-fun l_1_2_1 () Real)
(declare-fun l_1_2_2 () Real)
(declare-fun l_1_2_11 () Real)
(declare-fun l_1_2_10 () Real)
(declare-fun l_1_2_14 () Real)
(declare-fun l_1_2_13 () Real)
(declare-fun l_1_2_18 () Real)
(declare-fun l_1_2_17 () Real)
(declare-fun l_1_2_7 () Real)
(declare-fun l_1_2_12 () Real)
(declare-fun l_1_2_15 () Real)
(declare-fun l_1_2_19 () Real)
(declare-fun l_1_2_16 () Real)
(declare-fun l_1_2_20 () Real)
(declare-fun l_1_2_21 () Real)
(declare-fun l_1_3_9 () Real)
(declare-fun l_1_3_8 () Real)
(declare-fun l_1_3_6 () Real)
(declare-fun l_1_3_5 () Real)
(declare-fun l_1_3_4 () Real)
(declare-fun l_1_3_3 () Real)
(declare-fun l_1_3_1 () Real)
(declare-fun l_1_3_2 () Real)
(declare-fun l_1_3_11 () Real)
(declare-fun l_1_3_10 () Real)
(declare-fun l_1_3_7 () Real)
(declare-fun l_1_3_14 () Real)
(declare-fun l_1_3_13 () Real)
(declare-fun l_1_3_18 () Real)
(declare-fun l_1_3_17 () Real)
(declare-fun l_1_3_12 () Real)
(declare-fun l_1_3_15 () Real)
(declare-fun l_1_3_19 () Real)
(declare-fun l_1_3_16 () Real)
(declare-fun l_1_3_20 () Real)
(declare-fun l_1_3_21 () Real)
(assert
 (= (- (- (- _a_0_ l_1_0_3) l_1_0_4) (* l_1_0_5 l_1_0_5)) 0.0))
(assert
 (= (- (- _a_1_ l_1_0_1) (* (* 2.0 l_1_0_5) l_1_0_6)) 0.0))
(assert
 (= (- (- _a_4_ l_1_0_2) (* (* 2.0 l_1_0_5) l_1_0_8)) 0.0))
(assert
 (= (- (* (- l_1_0_6) l_1_0_6) (* l_1_0_7 l_1_0_7)) 0.0))
(assert
 (let ((?x117 (- (* (* (- 2.0) l_1_0_6) l_1_0_8) (* (* 2.0 l_1_0_7) l_1_0_9))))
 (= ?x117 0.0)))
(assert
 (let ((?x81 (* l_1_0_9 l_1_0_9)))
 (= (- (- (* (- l_1_0_10) l_1_0_10) (* l_1_0_8 l_1_0_8)) ?x81) 0.0)))
(assert
 (>= l_1_0_1 0.0))
(assert
 (>= l_1_0_2 0.0))
(assert
 (>= l_1_0_3 0.0))
(assert
 (>= l_1_0_4 0.0))
(assert
 (>= l_1_0_5 0.0))
(assert
 (>= l_1_0_7 0.0))
(assert
 (>= l_1_0_10 0.0))
(assert
 (let ((?x231 (* l_1_1_7 l_1_1_7)))
 (let ((?x245 (* l_1_1_6 l_1_1_6)))
 (let ((?x232 (- (- (- (- (* (- _a_0_) l_1_1_1) l_1_1_3) l_1_1_4) ?x245) ?x231)))
 (= (+ ?x232 1.0) 0.0)))))
(assert
 (let ((?x77 (- (+ (* (- _a_1_) l_1_1_1) l_1_1_2) (* (* 2.0 l_1_1_6) l_1_1_8))))
 (= (- ?x77 (* (* 2.0 l_1_1_7) l_1_1_9)) 0.0)))
(assert
 (= (- (* (- _a_2_) l_1_1_1) (* (* 2.0 l_1_1_5) l_1_1_6)) 0.0))
(assert
 (let ((?x278 (- (- (* (- _a_3_) l_1_1_1) (* (* 2.0 l_1_1_11) l_1_1_6)) (* (* 2.0 l_1_1_12) l_1_1_7))))
 (= ?x278 0.0)))
(assert
 (let ((?x304 (- (- (* (- _a_4_) l_1_1_1) (* (* 2.0 l_1_1_15) l_1_1_6)) (* (* 2.0 l_1_1_16) l_1_1_7))))
 (= ?x304 0.0)))
(assert
 (= (* (- l_1_1_5) l_1_1_5) 0.0))
(assert
 (= (* (* (- 2.0) l_1_1_5) l_1_1_8) 0.0))
(assert
 (= (* (* (- 2.0) l_1_1_11) l_1_1_5) 0.0))
(assert
 (= (* (* (- 2.0) l_1_1_15) l_1_1_5) 0.0))
(assert
 (let ((?x348 (* l_1_1_9 l_1_1_9)))
 (= (- (- (* (- l_1_1_10) l_1_1_10) (* l_1_1_8 l_1_1_8)) ?x348) 0.0)))
(assert
 (let ((?x365 (- (* (* (- 2.0) l_1_1_10) l_1_1_13) (* (* 2.0 l_1_1_11) l_1_1_8))))
 (= (- ?x365 (* (* 2.0 l_1_1_12) l_1_1_9)) 0.0)))
(assert
 (let ((?x388 (- (* (* (- 2.0) l_1_1_10) l_1_1_17) (* (* 2.0 l_1_1_15) l_1_1_8))))
 (= (- ?x388 (* (* 2.0 l_1_1_16) l_1_1_9)) 0.0)))
(assert
 (let ((?x415 (* l_1_1_14 l_1_1_14)))
 (let ((?x413 (* l_1_1_13 l_1_1_13)))
 (let ((?x416 (- (- (- (* (- l_1_1_11) l_1_1_11) (* l_1_1_12 l_1_1_12)) ?x413) ?x415)))
 (= ?x416 0.0)))))
(assert
 (let ((?x434 (- (* (* (- 2.0) l_1_1_11) l_1_1_15) (* (* 2.0 l_1_1_12) l_1_1_16))))
 (let ((?x440 (- (- ?x434 (* (* 2.0 l_1_1_13) l_1_1_17)) (* (* 2.0 l_1_1_14) l_1_1_18))))
 (= ?x440 0.0))))
(assert
 (let ((?x473 (* l_1_1_19 l_1_1_19)))
 (let ((?x471 (* l_1_1_18 l_1_1_18)))
 (let ((?x469 (* l_1_1_17 l_1_1_17)))
 (let ((?x472 (- (- (- (* (- l_1_1_15) l_1_1_15) (* l_1_1_16 l_1_1_16)) ?x469) ?x471)))
 (= (- ?x472 ?x473) 0.0))))))
(assert
 (>= l_1_1_1 0.0))
(assert
 (>= l_1_1_2 0.0))
(assert
 (>= l_1_1_3 0.0))
(assert
 (>= l_1_1_4 0.0))
(assert
 (>= l_1_1_5 0.0))
(assert
 (>= l_1_1_7 0.0))
(assert
 (>= l_1_1_10 0.0))
(assert
 (>= l_1_1_14 0.0))
(assert
 (>= l_1_1_19 0.0))
(assert
 (let ((?x516 (* l_1_2_9 l_1_2_9)))
 (let ((?x514 (* l_1_2_8 l_1_2_8)))
 (let ((?x507 (+ (- (+ (* (- _a_0_) l_1_2_1) _a_0_) (* 1.0 _a_1_)) (* 1.0 _a_3_))))
 (let ((?x513 (- (- (- (+ ?x507 (* 1.0 l_1_2_3)) (* 1.0 l_1_2_4)) l_1_2_5) l_1_2_6)))
 (= (- (- ?x513 ?x514) ?x516) 0.0))))))
(assert
 (let ((?x545 (- (+ (* (- _a_1_) l_1_2_1) _a_1_) (* (* 2.0 l_1_2_10) l_1_2_8))))
 (= (- (- ?x545 (* (* 2.0 l_1_2_11) l_1_2_9)) l_1_2_2) 0.0)))
(assert
 (let ((?x574 (- (+ (* (- _a_3_) l_1_2_1) _a_3_) (* (* 2.0 l_1_2_13) l_1_2_8))))
 (= (- ?x574 (* (* 2.0 l_1_2_14) l_1_2_9)) 0.0)))
(assert
 (let ((?x599 (- (+ (* (- _a_4_) l_1_2_1) _a_4_) (* (* 2.0 l_1_2_17) l_1_2_8))))
 (let ((?x604 (+ (- (- ?x599 (* (* 2.0 l_1_2_18) l_1_2_9)) l_1_2_3) l_1_2_4)))
 (= ?x604 0.0))))
(assert
 (let ((?x631 (- (- (+ (* (- _a_2_) l_1_2_1) l_1_2_3) l_1_2_4) (* (* 2.0 l_1_2_7) l_1_2_8))))
 (= ?x631 0.0)))
(assert
 (= (* (- l_1_2_7) l_1_2_7) 0.0))
(assert
 (= (* (* (- 2.0) l_1_2_10) l_1_2_7) 0.0))
(assert
 (= (* (* (- 2.0) l_1_2_13) l_1_2_7) 0.0))
(assert
 (= (* (* (- 2.0) l_1_2_17) l_1_2_7) 0.0))
(assert
 (let ((?x671 (* l_1_2_12 l_1_2_12)))
 (= (- (- (* (- l_1_2_10) l_1_2_10) (* l_1_2_11 l_1_2_11)) ?x671) 0.0)))
(assert
 (let ((?x687 (- (* (* (- 2.0) l_1_2_10) l_1_2_13) (* (* 2.0 l_1_2_11) l_1_2_14))))
 (= (- ?x687 (* (* 2.0 l_1_2_12) l_1_2_15)) 0.0)))
(assert
 (let ((?x711 (- (* (* (- 2.0) l_1_2_10) l_1_2_17) (* (* 2.0 l_1_2_11) l_1_2_18))))
 (= (- ?x711 (* (* 2.0 l_1_2_12) l_1_2_19)) 0.0)))
(assert
 (let ((?x738 (* l_1_2_16 l_1_2_16)))
 (let ((?x736 (* l_1_2_15 l_1_2_15)))
 (let ((?x739 (- (- (- (* (- l_1_2_13) l_1_2_13) (* l_1_2_14 l_1_2_14)) ?x736) ?x738)))
 (= ?x739 0.0)))))
(assert
 (let ((?x757 (- (* (* (- 2.0) l_1_2_13) l_1_2_17) (* (* 2.0 l_1_2_14) l_1_2_18))))
 (let ((?x763 (- (- ?x757 (* (* 2.0 l_1_2_15) l_1_2_19)) (* (* 2.0 l_1_2_16) l_1_2_20))))
 (= ?x763 0.0))))
(assert
 (let ((?x796 (* l_1_2_21 l_1_2_21)))
 (let ((?x794 (* l_1_2_20 l_1_2_20)))
 (let ((?x792 (* l_1_2_19 l_1_2_19)))
 (let ((?x795 (- (- (- (* (- l_1_2_17) l_1_2_17) (* l_1_2_18 l_1_2_18)) ?x792) ?x794)))
 (= (- ?x795 ?x796) 0.0))))))
(assert
 (>= l_1_2_1 0.0))
(assert
 (>= l_1_2_2 0.0))
(assert
 (>= l_1_2_3 0.0))
(assert
 (>= l_1_2_4 0.0))
(assert
 (>= l_1_2_5 0.0))
(assert
 (>= l_1_2_6 0.0))
(assert
 (>= l_1_2_7 0.0))
(assert
 (>= l_1_2_9 0.0))
(assert
 (>= l_1_2_12 0.0))
(assert
 (>= l_1_2_16 0.0))
(assert
 (>= l_1_2_21 0.0))
(assert
 (let ((?x840 (* l_1_3_9 l_1_3_9)))
 (let ((?x838 (* l_1_3_8 l_1_3_8)))
 (let ((?x831 (+ (- (+ (* (- _a_0_) l_1_3_1) _a_0_) (* 1.0 _a_1_)) (* 1.0 _a_2_))))
 (let ((?x837 (- (- (+ (- ?x831 (* 1.0 l_1_3_3)) (* 1.0 l_1_3_4)) l_1_3_5) l_1_3_6)))
 (= (- (- ?x837 ?x838) ?x840) 0.0))))))
(assert
 (let ((?x870 (- (+ (* (- _a_1_) l_1_3_1) _a_1_) (* (* 2.0 l_1_3_10) l_1_3_8))))
 (= (- (- ?x870 (* (* 2.0 l_1_3_11) l_1_3_9)) l_1_3_2) 0.0)))
(assert
 (let ((?x901 (- (+ (- (+ (* (- _a_2_) l_1_3_1) _a_2_) l_1_3_3) l_1_3_4) (* (* 2.0 l_1_3_7) l_1_3_8))))
 (= ?x901 0.0)))
(assert
 (let ((?x920 (- (+ (* (- _a_3_) l_1_3_1) _a_3_) (* (* 2.0 l_1_3_13) l_1_3_8))))
 (= (- ?x920 (* (* 2.0 l_1_3_14) l_1_3_9)) 0.0)))
(assert
 (let ((?x945 (- (+ (* (- _a_4_) l_1_3_1) _a_4_) (* (* 2.0 l_1_3_17) l_1_3_8))))
 (let ((?x950 (- (+ (- ?x945 (* (* 2.0 l_1_3_18) l_1_3_9)) l_1_3_3) l_1_3_4)))
 (= ?x950 0.0))))
(assert
 (= (* (- l_1_3_7) l_1_3_7) 0.0))
(assert
 (= (* (* (- 2.0) l_1_3_10) l_1_3_7) 0.0))
(assert
 (= (* (* (- 2.0) l_1_3_13) l_1_3_7) 0.0))
(assert
 (= (* (* (- 2.0) l_1_3_17) l_1_3_7) 0.0))
(assert
 (let ((?x997 (* l_1_3_12 l_1_3_12)))
 (= (- (- (* (- l_1_3_10) l_1_3_10) (* l_1_3_11 l_1_3_11)) ?x997) 0.0)))
(assert
 (let ((?x1013 (- (* (* (- 2.0) l_1_3_10) l_1_3_13) (* (* 2.0 l_1_3_11) l_1_3_14))))
 (= (- ?x1013 (* (* 2.0 l_1_3_12) l_1_3_15)) 0.0)))
(assert
 (let ((?x1037 (- (* (* (- 2.0) l_1_3_10) l_1_3_17) (* (* 2.0 l_1_3_11) l_1_3_18))))
 (= (- ?x1037 (* (* 2.0 l_1_3_12) l_1_3_19)) 0.0)))
(assert
 (let ((?x1064 (* l_1_3_16 l_1_3_16)))
 (let ((?x1062 (* l_1_3_15 l_1_3_15)))
 (let ((?x1065 (- (- (- (* (- l_1_3_13) l_1_3_13) (* l_1_3_14 l_1_3_14)) ?x1062) ?x1064)))
 (= ?x1065 0.0)))))
(assert
 (let ((?x1083 (- (* (* (- 2.0) l_1_3_13) l_1_3_17) (* (* 2.0 l_1_3_14) l_1_3_18))))
 (let ((?x1089 (- (- ?x1083 (* (* 2.0 l_1_3_15) l_1_3_19)) (* (* 2.0 l_1_3_16) l_1_3_20))))
 (= ?x1089 0.0))))
(assert
 (let ((?x1122 (* l_1_3_21 l_1_3_21)))
 (let ((?x1120 (* l_1_3_20 l_1_3_20)))
 (let ((?x1118 (* l_1_3_19 l_1_3_19)))
 (let ((?x1121 (- (- (- (* (- l_1_3_17) l_1_3_17) (* l_1_3_18 l_1_3_18)) ?x1118) ?x1120)))
 (= (- ?x1121 ?x1122) 0.0))))))
(assert
 (>= l_1_3_1 0.0))
(assert
 (>= l_1_3_2 0.0))
(assert
 (>= l_1_3_3 0.0))
(assert
 (>= l_1_3_4 0.0))
(assert
 (>= l_1_3_5 0.0))
(assert
 (>= l_1_3_6 0.0))
(assert
 (>= l_1_3_7 0.0))
(assert
 (>= l_1_3_9 0.0))
(assert
 (>= l_1_3_12 0.0))
(assert
 (>= l_1_3_16 0.0))
(assert
 (>= l_1_3_21 0.0))
(check-sat)
(get-model)